NAME : tsp_467_sol.txt
COMMENT : OR-Tools Guided Local Search
TYPE : TOUR
DIMENSION : 50
COST : 5423
STATUS : ROUTING_SUCCESS
GAP : 0.00% (Reference Solution)
TOUR_SECTION
1
49
13
46
33
34
12
36
27
50
40
32
6
38
8
19
42
18
44
7
43
23
37
15
48
30
26
24
17
35
22
45
16
31
11
14
9
21
5
2
41
10
3
20
47
39
29
28
4
25
-1
